(set-logic HORN)
(declare-fun state (Int Int (Array Int Int) Int Int Int (Array Int Int) Int Bool Bool Bool Int Int Int) Bool)
(assert (forall ((|I_5| Int) (|E_5| Int) (|F_5| (Array Int Int)) (|D_5| Int) (|A_6| Int) (|.y.12| Int) (|.y.13| (Array Int Int)) (|.y.14| Int) (|.loc.15| Bool) (|.loc.16| Bool) (|.loc.17| Bool) (|G_2| Int) (|L_5| Int) (|G_5| Int) (|.loc.28| Bool) (|.loc.26| Bool) (|.loc.27| Bool) (|.y.22| Int) (|.y.20| (Array Int Int)) (|.y.19| Int) (|.y.18| Int) (|.y.21| Int) (|.y.25| Int) (|.y.23| Int) (|.y.24| (Array Int Int)) (|.xtv.1| Int) (|.xtv.2| Int) (|.xtv.3| Int)) (=> (and (and (not .loc.15) (not .loc.16)) (not .loc.17)) (state |I_5| |E_5| |F_5| |D_5| |A_6| |.y.12| |.y.13| |.y.14| |.loc.15| |.loc.16| |.loc.17| |G_2| |L_5| |G_5|))))
(assert (forall ((|I_5| Int) (|E_5| Int) (|F_5| (Array Int Int)) (|D_5| Int) (|A_6| Int) (|.y.12| Int) (|.y.13| (Array Int Int)) (|.y.14| Int) (|.loc.15| Bool) (|.loc.16| Bool) (|.loc.17| Bool) (|G_2| Int) (|L_5| Int) (|G_5| Int) (|.loc.28| Bool) (|.loc.26| Bool) (|.loc.27| Bool) (|.y.22| Int) (|.y.20| (Array Int Int)) (|.y.19| Int) (|.y.18| Int) (|.y.21| Int) (|.y.25| Int) (|.y.23| Int) (|.y.24| (Array Int Int)) (|.xtv.1| Int) (|.xtv.2| Int) (|.xtv.3| Int)) (=> (and (state |I_5| |E_5| |F_5| |D_5| |A_6| |.y.12| |.y.13| |.y.14| |.loc.15| |.loc.16| |.loc.17| |G_2| |L_5| |G_5|) (let ((.def_24 (not .loc.15))) (let ((.def_25 (not .loc.16))) (let ((.def_29 (select F_5 G_5))) (let ((.def_40 (<= E_5 0))) (let ((.def_42 (not (<= G_5 0)))) (let ((.def_53 (and (or .def_40 .def_42) (and (not (<= A_6 D_5)) (and (= (+ E_5 (+ D_5 (* (- 1) G_5))) 0) (not .def_40)))))) (let ((.def_60 (not .loc.26))) (let ((.def_63 (not .loc.27))) (let ((.def_74 (not .loc.28))) (let ((.def_78 (= .y.21 0))) (let ((.def_80 (<= .y.14 D_5))) (let ((.def_98 (= (+ D_5 (* (- 1) .y.21)) (- 1)))) (let ((.def_100 (= I_5 .y.18))) (let ((.def_103 (= F_5 .y.20))) (let ((.def_105 (= A_6 .y.22))) (let ((.def_122 (= .y.13 .y.24))) (let ((.def_124 (<= .y.12 E_5))) (let ((.def_133 (<= .y.12 0))) (let ((.def_135 (<= I_5 0))) (let ((.def_163 (not .def_135))) (let ((.def_170 (= .y.12 .y.23))) (and (not .loc.17) (or (or (or (or (and .loc.16 (or (or (and (and (and (and .loc.15 (and (not (= L_5 .def_29)) (and (= (+ I_5 (* (- 1) L_5)) (- 42)) .def_53))) .loc.28) .def_60) .def_63) (and (= .y.14 .y.22) (and (= .y.13 .y.20) (and (= .y.12 .y.19) (and (= A_6 .y.18) (and (and (and .def_24 (and (and .loc.26 .loc.27) .def_74)) .def_78) .def_80)))))) (and (and (and (= E_5 .y.19) (and (and (and (= (+ I_5 (* (- 1) .def_29)) (- 42)) (and .def_74 (and .loc.27 (and .loc.26 (and .loc.15 .def_53))))) .def_98) .def_100)) .def_103) .def_105))) (and (= .y.12 .y.25) (and (= A_6 .y.23) (and (= D_5 .y.22) (and (and (and .def_25 (and .def_103 (and .def_100 (and .def_78 (and .def_74 (and .def_60 (and .loc.15 .loc.27))))))) .def_122) .def_124))))) (and (= .y.14 .y.25) (and (and (or (not (<= L_5 0)) .def_133) (and (or .def_42 .def_135) (and (not .def_80) (and (= (+ I_5 (+ D_5 (* (- 1) G_5))) 0) (and (= (+ D_5 (+ .y.12 (* (- 1) L_5))) 0) (and (and (not .def_133) (and (= (+ A_6 (+ (* (- 1) G_2) .def_29)) 0) (and (= .y.24 (store .y.13 L_5 G_2)) (and .def_105 (and .def_103 (and .def_100 (and .def_98 (and .def_24 (and .def_74 (and .def_60 (and .loc.16 .loc.27))))))))))) .def_163)))))) .def_170))) (and (not (<= .y.18 0)) (and (not (<= .y.22 0)) (and (not (<= .y.23 0)) (and (= .y.19 0) (and .def_25 (and .def_24 (and .def_74 (and .loc.26 .def_63))))))))) (and (= D_5 .y.21) (and (not .def_124) (and (or .def_135 (not (<= G_2 0))) (and (= (+ I_5 (+ E_5 (* (- 1) G_2))) 0) (and (= (+ E_5 (* (- 1) .y.19)) (- 1)) (and (= .y.20 (store F_5 G_2 42)) (and .def_170 (and .def_163 (and .def_122 (and .def_25 (and .def_105 (and .def_100 (and .def_74 (and .def_63 (and .loc.15 .loc.26))))))))))))))))))))))))))))))))))))))) (state |.y.18| |.y.19| |.y.20| |.y.21| |.y.22| |.y.23| |.y.24| |.y.25| |.loc.26| |.loc.27| |.loc.28| |.xtv.1| |.xtv.2| |.xtv.3|))))
(assert (forall ((|I_5| Int) (|E_5| Int) (|F_5| (Array Int Int)) (|D_5| Int) (|A_6| Int) (|.y.12| Int) (|.y.13| (Array Int Int)) (|.y.14| Int) (|.loc.15| Bool) (|.loc.16| Bool) (|.loc.17| Bool) (|G_2| Int) (|L_5| Int) (|G_5| Int) (|.loc.28| Bool) (|.loc.26| Bool) (|.loc.27| Bool) (|.y.22| Int) (|.y.20| (Array Int Int)) (|.y.19| Int) (|.y.18| Int) (|.y.21| Int) (|.y.25| Int) (|.y.23| Int) (|.y.24| (Array Int Int)) (|.xtv.1| Int) (|.xtv.2| Int) (|.xtv.3| Int)) (=> (state |I_5| |E_5| |F_5| |D_5| |A_6| |.y.12| |.y.13| |.y.14| |.loc.15| |.loc.16| |.loc.17| |G_2| |L_5| |G_5|) (not (and .loc.17 (and (not .loc.15) (not .loc.16)))))))
(check-sat)
